(set-info :Origin "This instance was generated by: BanditFuzz-- an RL fuzzer for SMT solvers" )
(set-info :Author "Joe Scott, Fed Mora, Vijay Ganesh" )
(set-info :Contact "Joe Scott, joseph.scott@uwaterloo.ca")
(set-logic QF_BV)
(declare-const bool_0 Bool)
(declare-const bool_1 Bool)
(declare-const bool_2 Bool)
(declare-const bool_3 Bool)
(declare-const bool_4 Bool)
(declare-const bv_0 (_ BitVec 32))
(declare-const bv_1 (_ BitVec 32))
(declare-const bv_2 (_ BitVec 32))
(declare-const bv_3 (_ BitVec 32))
(declare-const bv_4 (_ BitVec 32))
(assert (bvugt (bvsub (bvudiv #x3c977de5  #x8aa305f9 ) (bvsrem #x9d47c4c4  bv_0)) (bvor (bvashr bv_1 #x11693065 ) (bvlshr #x658e6d25  bv_0))))
(assert (xor (bvsge (bvsmod #xb9c0c519  #x0caf16fd ) (bvsdiv #x5dc8fb66  bv_0)) (=> (bvule bv_2 bv_2) (or bool_1 false))))
(assert (=> (bvuge (bvmul bv_0 bv_4) (bvsub #x667fb809  #xbf0479c4 )) (bvslt (bvadd #xa347f690  bv_0) (bvsub #x659ffd7f  bv_3))))
(assert (bvult (bvshl (bvxnor #xf4fc8ba8  bv_2) (bvashr #x9349e5bf  bv_1)) (bvashr (bvand bv_0 #x11e59fa4 ) (bvadd bv_0 #x90c5ee4e ))))
(assert (bvslt (bvurem (bvsrem bv_2 bv_3) (bvor bv_0 bv_1)) (bvxnor (bvxor #x11e70954  #x80efd5ed ) (bvudiv #x4979ba4d  bv_3))))
(check-sat)
(exit)
